LengthSchedulingHorizon=9682;
nAttributes=5;
SetupCosts=[[0, 0, 0, 0, 0], [1, 3, 3, 3, 3], [3, 0, 3, 3, 3], [3, 3, 1, 3, 3], [3, 3, 3, 1, 3], [3, 3, 3, 3, 2]];
SetupTimes=[[0, 0, 0, 0, 0], [1, 3, 3, 3, 3], [3, 0, 3, 3, 3], [3, 3, 2, 3, 3], [3, 3, 3, 2, 3], [3, 3, 3, 3, 2]];
nMachines=5;
MinCap=[0, 0, 0, 0, 0];
MaxCap=[62, 88, 57, 97, 6];

initState=[1, 1, 5, 2, 5];
nShifts=5;
ShiftStartTimes = [[0, 4065, 4244, 6518, 6621], [7066, 7227, 7715, 8742, 8975], [0, 0, 4353, 4966, 6452], [0, 0, 0, 6156, 8864], [0, 0, 6665, 6956, 7983]];
ShiftEndTimes = [[0, 4112, 6449, 6595, 9040], [7129, 7614, 8714, 8938, 9411], [0, 0, 4658, 6389, 7836], [0, 0, 0, 7928, 9288], [0, 0, 6952, 7644, 9481]];
nJobs=250;
EligibleMachines = [{1, 2, 3}, {3}, {1}, {1, 2, 4, 5}, {4, 5}, {1, 2, 3}, {1, 4}, {3, 5}, {2, 4, 5}, {2, 3, 4}, {3}, {1, 3, 4, 5}, {1, 2, 3, 5}, {2, 3, 5}, {1, 2, 3, 4, 5}, {1, 2, 3}, {1, 2, 3, 5}, {1, 3, 4}, {1, 3, 4}, {3, 5}, {1, 3, 4}, {2, 3, 4}, {2, 3, 4}, {1, 3, 5}, {1, 4, 5}, {1, 4}, {1, 3, 5}, {1}, {1, 2, 3, 4, 5}, {3, 4, 5}, {1, 3, 4, 5}, {3, 4, 5}, {4, 5}, {1, 2, 4}, {1, 2, 3, 4}, {2, 3, 4}, {1, 2, 3, 5}, {3, 4, 5}, {2}, {3, 4, 5}, {1, 2, 3, 4, 5}, {2, 4}, {1, 2, 3, 4, 5}, {1, 3, 4, 5}, {1, 3, 5}, {1, 4}, {3, 5}, {2, 3, 4}, {3, 4, 5}, {1, 5}, {1, 2, 4, 5}, {2, 4}, {2, 5}, {1, 2, 3, 4, 5}, {1, 3}, {2, 5}, {5}, {2, 5}, {1, 2, 3, 4}, {1, 3, 5}, {1, 2, 4, 5}, {1, 3, 4, 5}, {1, 4, 5}, {3, 5}, {3, 4}, {1, 2, 5}, {1, 3}, {1, 3}, {1, 3, 4, 5}, {1, 2, 5}, {4}, {2, 3, 4, 5}, {1, 3, 5}, {1, 5}, {1, 2, 3, 4, 5}, {1, 3, 5}, {1, 3, 4, 5}, {1, 5}, {1, 2, 3, 5}, {1, 2, 3, 4, 5}, {2, 5}, {1, 2, 4, 5}, {1, 4, 5}, {1, 2, 3, 4}, {2, 5}, {2, 4}, {1, 2, 5}, {1, 3, 5}, {2, 3, 4, 5}, {1, 4}, {1, 2, 3}, {1, 2}, {3, 4, 5}, {5}, {1, 2, 3, 4}, {1, 2, 4, 5}, {1, 3, 5}, {1, 2, 4, 5}, {1, 2, 3, 4, 5}, {1, 4, 5}, {1, 2, 5}, {4}, {1, 5}, {1, 2, 3, 4, 5}, {1, 4}, {1, 2, 3, 4}, {1, 2}, {1, 2, 3, 4, 5}, {1, 3, 4, 5}, {1, 3}, {2, 3, 5}, {1, 3}, {2, 5}, {3, 4}, {1, 2, 3, 4, 5}, {1, 5}, {1, 2, 3, 4, 5}, {4, 5}, {5}, {1, 4}, {1, 2, 3, 5}, {1, 2, 5}, {1, 3, 5}, {2, 3, 5}, {2, 4, 5}, {1, 2, 3, 4, 5}, {2, 3}, {1, 5}, {2, 3, 5}, {1, 3, 4}, {1, 2, 5}, {2, 3, 4}, {1, 4, 5}, {1, 4, 5}, {1, 4, 5}, {1, 2, 3, 5}, {1, 3, 4}, {2, 3}, {2, 3}, {2, 4}, {1, 2, 3, 4}, {1, 3, 4}, {1, 4}, {4, 5}, {2, 3, 5}, {1, 3, 5}, {1, 4}, {1, 5}, {1, 2, 4, 5}, {2, 3, 5}, {1, 2, 3, 4}, {1, 2, 5}, {2, 4, 5}, {1, 4, 5}, {3, 4}, {2, 3, 4, 5}, {1, 2, 3, 4, 5}, {1, 2, 4, 5}, {4, 5}, {3, 4, 5}, {1, 2, 3}, {1, 2, 3, 4, 5}, {2, 4}, {5}, {1, 2, 3}, {4, 5}, {1, 3, 4, 5}, {1, 2, 3}, {3, 4, 5}, {2, 4}, {1, 2, 3}, {1, 3, 5}, {1, 2, 4, 5}, {1, 3, 4, 5}, {1, 2, 4, 5}, {2, 3, 4}, {1, 3}, {1, 2, 3}, {3, 4, 5}, {1, 3, 4, 5}, {4}, {3, 4, 5}, {1, 2, 4}, {1, 5}, {1, 3, 4, 5}, {1, 2, 3, 4, 5}, {2, 5}, {1, 2, 3, 4, 5}, {1, 2, 3, 5}, {1, 3}, {1, 2, 3, 5}, {1, 3, 5}, {1, 2, 3, 4}, {1, 2, 4, 5}, {2, 3, 4}, {2, 4, 5}, {1, 3, 4, 5}, {5}, {1, 2, 3, 5}, {1, 3, 4, 5}, {1, 3, 5}, {2, 4}, {2, 3, 4}, {1, 5}, {1, 2, 3, 4}, {2, 3, 4}, {2, 4}, {4}, {2, 3, 4}, {1, 4, 5}, {2, 4, 5}, {3}, {1, 4}, {2, 3, 4, 5}, {1, 5}, {1, 2, 4}, {1, 3, 4}, {3, 4, 5}, {1, 2, 3, 4, 5}, {1, 2, 3, 4, 5}, {1, 2, 4}, {3, 4, 5}, {1, 3, 5}, {1, 4, 5}, {2, 3, 4}, {1, 3, 4}, {4, 5}, {1, 2, 4}, {2, 3, 4}, {4}, {2, 3, 4}, {1, 3, 5}, {1, 5}, {1, 2}, {1, 2, 5}, {1, 3, 5}, {2, 3, 5}, {1, 2, 3, 5}, {1, 2}, {1, 2, 3}, {3, 4}, {3}, {1, 2, 3, 4, 5}, {1, 2, 4, 5}, {1, 2, 3}, {2, 3}, {1, 3, 4, 5}, {3, 4}, {1, 2, 3, 4, 5}, {3, 5}];
EarliestStart=[140, 716, 274, 490, 15, 82, 57, 231, 244, 163, 444, 731, 473, 573, 408, 223, 658, 600, 254, 717, 6, 691, 405, 157, 737, 654, 342, 207, 178, 630, 421, 174, 509, 622, 79, 184, 87, 343, 370, 232, 162, 729, 405, 653, 363, 43, 643, 30, 205, 167, 41, 554, 22, 686, 287, 189, 698, 75, 319, 269, 157, 70, 652, 398, 332, 251, 123, 528, 509, 373, 673, 458, 475, 399, 512, 447, 242, 7, 50, 492, 166, 475, 535, 321, 368, 344, 317, 214, 643, 406, 644, 65, 687, 179, 703, 53, 391, 310, 504, 542, 279, 480, 449, 252, 150, 709, 334, 3, 324, 404, 549, 542, 149, 661, 417, 622, 619, 209, 404, 344, 236, 718, 401, 105, 630, 305, 20, 77, 493, 513, 596, 664, 168, 376, 303, 482, 607, 365, 322, 493, 541, 370, 500, 167, 442, 638, 738, 422, 574, 578, 541, 551, 230, 513, 291, 691, 662, 650, 176, 732, 543, 161, 95, 490, 400, 292, 120, 307, 464, 434, 499, 618, 54, 517, 689, 536, 78, 704, 162, 455, 180, 667, 314, 589, 469, 200, 282, 365, 515, 335, 453, 698, 583, 715, 318, 237, 625, 134, 725, 672, 284, 608, 231, 561, 176, 508, 618, 218, 11, 203, 452, 393, 297, 627, 165, 468, 67, 182, 365, 660, 79, 200, 64, 316, 139, 435, 425, 655, 710, 584, 69, 436, 221, 315, 639, 122, 660, 230, 572, 731, 219, 36, 324, 207, 606, 128, 687, 24, 483, 221];
LatestEnd=[153, 724, 277, 508, 21, 92, 68, 248, 252, 171, 449, 738, 481, 578, 413, 231, 669, 601, 270, 725, 13, 706, 406, 162, 750, 655, 350, 215, 186, 632, 432, 191, 515, 625, 96, 195, 89, 359, 377, 250, 171, 736, 412, 658, 371, 53, 648, 45, 215, 172, 43, 557, 32, 703, 292, 199, 704, 92, 322, 277, 173, 73, 659, 399, 334, 258, 130, 529, 521, 381, 676, 467, 481, 406, 523, 456, 247, 11, 53, 506, 172, 479, 537, 329, 370, 354, 325, 229, 650, 418, 647, 73, 688, 198, 713, 68, 392, 317, 512, 554, 294, 493, 459, 269, 154, 724, 352, 12, 331, 415, 562, 546, 156, 664, 435, 631, 630, 218, 418, 360, 239, 725, 410, 109, 640, 321, 30, 91, 498, 518, 601, 668, 169, 382, 315, 493, 610, 371, 332, 507, 554, 373, 509, 174, 457, 651, 739, 431, 579, 582, 556, 566, 235, 522, 302, 703, 669, 662, 184, 734, 548, 165, 111, 491, 401, 297, 127, 319, 483, 435, 509, 621, 60, 534, 696, 537, 93, 708, 171, 466, 187, 676, 315, 593, 485, 205, 288, 375, 533, 341, 455, 711, 600, 721, 320, 252, 636, 137, 744, 676, 290, 617, 246, 562, 182, 521, 629, 219, 20, 213, 457, 399, 304, 637, 167, 482, 84, 183, 368, 661, 87, 205, 73, 325, 147, 441, 435, 656, 723, 595, 70, 447, 224, 329, 653, 130, 665, 245, 587, 736, 229, 44, 336, 222, 617, 132, 691, 32, 489, 230];
MinTime=[8, 5, 2, 10, 6, 9, 6, 9, 7, 6, 4, 7, 8, 5, 3, 7, 9, 1, 9, 8, 4, 10, 1, 4, 7, 1, 5, 5, 8, 2, 9, 9, 4, 3, 9, 8, 2, 9, 6, 10, 9, 5, 5, 5, 8, 6, 3, 9, 7, 3, 2, 3, 8, 10, 4, 10, 5, 9, 2, 8, 10, 2, 5, 1, 2, 4, 6, 1, 7, 8, 3, 5, 5, 6, 6, 7, 4, 4, 3, 9, 5, 4, 2, 5, 2, 8, 6, 9, 4, 10, 3, 8, 1, 10, 8, 10, 1, 6, 5, 8, 9, 10, 6, 9, 4, 9, 10, 6, 6, 6, 9, 3, 7, 3, 10, 6, 9, 7, 8, 9, 2, 7, 8, 3, 6, 9, 10, 10, 5, 5, 4, 3, 1, 5, 9, 7, 2, 6, 9, 10, 8, 3, 8, 7, 9, 10, 1, 8, 5, 3, 10, 9, 3, 6, 6, 9, 4, 8, 7, 2, 4, 4, 9, 1, 1, 3, 6, 9, 10, 1, 8, 3, 5, 9, 4, 1, 9, 4, 8, 6, 7, 7, 1, 3, 9, 4, 6, 8, 10, 5, 2, 10, 9, 4, 2, 8, 8, 3, 10, 3, 5, 8, 9, 1, 5, 8, 6, 1, 7, 7, 5, 4, 7, 7, 2, 8, 9, 1, 3, 1, 6, 5, 8, 7, 5, 5, 7, 1, 7, 9, 1, 10, 2, 10, 8, 6, 3, 8, 10, 3, 7, 6, 7, 9, 7, 4, 3, 8, 6, 8];
MaxTime=[10, 10, 10, 10, 10, 10, 10, 10, 10, 10, 10, 10, 10, 10, 10, 10, 10, 10, 10, 10, 10, 10, 10, 10, 10, 10, 10, 10, 10, 10, 10, 10, 10, 10, 10, 10, 10, 10, 10, 10, 10, 10, 10, 10, 10, 10, 10, 10, 10, 10, 10, 10, 10, 10, 10, 10, 10, 10, 10, 10, 10, 10, 10, 10, 10, 10, 10, 10, 10, 10, 10, 10, 10, 10, 10, 10, 10, 10, 10, 10, 10, 10, 10, 10, 10, 10, 10, 10, 10, 10, 10, 10, 10, 10, 10, 10, 10, 10, 10, 10, 10, 10, 10, 10, 10, 10, 10, 10, 10, 10, 10, 10, 10, 10, 10, 10, 10, 10, 10, 10, 10, 10, 10, 10, 10, 10, 10, 10, 10, 10, 10, 10, 10, 10, 10, 10, 10, 10, 10, 10, 10, 10, 10, 10, 10, 10, 10, 10, 10, 10, 10, 10, 10, 10, 10, 10, 10, 10, 10, 10, 10, 10, 10, 10, 10, 10, 10, 10, 10, 10, 10, 10, 10, 10, 10, 10, 10, 10, 10, 10, 10, 10, 10, 10, 10, 10, 10, 10, 10, 10, 10, 10, 10, 10, 10, 10, 10, 10, 10, 10, 10, 10, 10, 10, 10, 10, 10, 10, 10, 10, 10, 10, 10, 10, 10, 10, 10, 10, 10, 10, 10, 10, 10, 10, 10, 10, 10, 10, 10, 10, 10, 10, 10, 10, 10, 10, 10, 10, 10, 10, 10, 10, 10, 10, 10, 10, 10, 10, 10, 10];
JobSize=[5, 2, 1, 2, 2, 4, 2, 2, 2, 5, 1, 2, 1, 4, 2, 2, 1, 4, 4, 3, 4, 4, 4, 3, 4, 1, 1, 2, 1, 4, 2, 5, 3, 5, 3, 4, 2, 4, 4, 5, 5, 3, 5, 1, 4, 4, 1, 5, 4, 3, 3, 2, 1, 4, 3, 4, 5, 1, 3, 5, 3, 5, 4, 2, 2, 1, 3, 2, 3, 4, 4, 4, 1, 3, 5, 2, 2, 4, 4, 1, 1, 4, 4, 3, 5, 2, 4, 2, 5, 1, 4, 4, 4, 2, 1, 2, 1, 4, 2, 2, 2, 2, 3, 4, 1, 5, 2, 2, 2, 5, 3, 3, 4, 1, 2, 1, 2, 2, 4, 2, 4, 1, 1, 4, 3, 5, 5, 3, 4, 5, 4, 3, 5, 4, 2, 3, 1, 5, 1, 3, 4, 3, 2, 4, 4, 1, 5, 5, 3, 4, 2, 5, 1, 4, 4, 2, 1, 1, 2, 1, 1, 2, 1, 3, 4, 5, 3, 1, 5, 1, 4, 5, 5, 2, 5, 1, 4, 1, 2, 2, 2, 1, 4, 1, 4, 3, 5, 5, 3, 5, 1, 5, 1, 1, 2, 3, 5, 2, 2, 4, 4, 5, 2, 2, 1, 3, 2, 5, 5, 2, 5, 5, 5, 4, 5, 4, 3, 1, 4, 1, 5, 1, 3, 4, 2, 5, 3, 1, 3, 3, 4, 3, 4, 5, 1, 5, 1, 2, 4, 5, 3, 4, 2, 4, 5, 5, 1, 3, 1, 1];
Attribute=[3, 1, 2, 3, 2, 2, 2, 4, 5, 3, 2, 1, 4, 2, 2, 1, 3, 5, 1, 5, 3, 5, 4, 4, 2, 5, 4, 4, 3, 1, 5, 5, 4, 1, 1, 1, 4, 1, 4, 4, 1, 3, 2, 2, 3, 5, 1, 2, 3, 2, 4, 4, 1, 1, 2, 4, 4, 2, 5, 4, 5, 4, 5, 2, 2, 1, 2, 5, 5, 4, 3, 3, 2, 3, 4, 3, 4, 1, 4, 2, 1, 4, 1, 2, 3, 5, 1, 2, 2, 5, 1, 2, 1, 3, 2, 5, 1, 1, 5, 2, 2, 4, 1, 3, 5, 5, 3, 3, 3, 5, 3, 4, 5, 2, 2, 2, 4, 5, 2, 3, 5, 5, 1, 3, 3, 2, 4, 2, 2, 5, 2, 4, 4, 5, 3, 3, 1, 1, 1, 2, 1, 5, 1, 1, 4, 2, 2, 3, 1, 5, 2, 5, 3, 3, 1, 3, 2, 3, 4, 5, 5, 3, 5, 4, 3, 4, 2, 2, 5, 3, 5, 4, 4, 3, 2, 2, 5, 3, 3, 4, 1, 2, 3, 4, 1, 5, 3, 1, 2, 1, 5, 2, 4, 4, 2, 4, 1, 3, 5, 1, 1, 4, 3, 3, 4, 5, 1, 4, 1, 3, 3, 2, 1, 3, 5, 4, 2, 5, 4, 3, 2, 3, 2, 2, 3, 1, 4, 3, 4, 3, 1, 2, 2, 3, 3, 1, 5, 1, 4, 1, 4, 2, 2, 4, 2, 2, 1, 4, 2, 4];

upper_bound_integer_objective=157500;
mult_factor_total_runtime=4;
mult_factor_finished_toolate=600;
mult_factor_total_setuptimes=0;
mult_factor_total_setupcosts=2;
running_time_bound=1486;
min_duration=1;
max_duration=10;
max_setup_time=3;
max_setup_cost=3;
